% Auto-generated by scripts/generate_dzn.py
% problem_type   = regex
% instance       = regex_24
% source_json    = instances_json/1_medium_blowup/regex_24.json
% blowup         = 3.8518518518518516
% representation = DFA

mode = 0;

var_count = 20;
n_constraints = 2;
Q = 88;
S = 2;
q0 = [1, 1];
F = [{61, 62, 63, 64, 65, 66, 67, 68, 69, 70, 71, 72, 73, 74, 75, 76, 77, 78, 79, 80, 81, 82, 83, 84, 85, 86, 87, 88}, {15}];
weights = [7, 4, 7, 6, 1, 10, 7, 4, 2, 7, 6, 2, 6, 9, 1, 3, 2, 7, 3, 9];
d_dfa = array3d(1..2, 1..88, 1..2, [
  % k = 1
    1, 2,
    3, 2,
    4, 2,
    6, 5,
    8, 7,
    9, 7,
    11, 10,
    12, 10,
    13, 10,
    15, 14,
    16, 14,
    18, 17,
    19, 14,
    21, 20,
    22, 20,
    24, 23,
    26, 25,
    27, 25,
    28, 20,
    30, 29,
    31, 29,
    33, 32,
    35, 34,
    36, 34,
    38, 37,
    39, 37,
    40, 37,
    41, 29,
    43, 42,
    44, 42,
    46, 45,
    48, 47,
    49, 47,
    51, 50,
    52, 50,
    53, 50,
    55, 54,
    56, 54,
    58, 57,
    59, 54,
    60, 42,
    62, 61,
    63, 61,
    65, 64,
    67, 66,
    68, 66,
    70, 69,
    71, 69,
    72, 69,
    74, 73,
    75, 73,
    77, 76,
    78, 73,
    80, 79,
    81, 79,
    83, 82,
    85, 84,
    86, 84,
    87, 79,
    88, 61,
    3, 2,
    4, 2,
    6, 5,
    8, 7,
    9, 7,
    11, 10,
    12, 10,
    13, 10,
    15, 14,
    16, 14,
    18, 17,
    19, 14,
    21, 20,
    22, 20,
    24, 23,
    26, 25,
    27, 25,
    28, 20,
    30, 29,
    31, 29,
    33, 32,
    35, 34,
    36, 34,
    38, 37,
    39, 37,
    40, 37,
    41, 29,
    1, 2,

  % k = 2
    1, 2,
    2, 3,
    3, 4,
    4, 5,
    5, 6,
    6, 7,
    7, 8,
    8, 9,
    9, 10,
    10, 11,
    11, 12,
    12, 13,
    13, 14,
    14, 15,
    15, 16,
    16, 16,
    0, 0,
    0, 0,
    0, 0,
    0, 0,
    0, 0,
    0, 0,
    0, 0,
    0, 0,
    0, 0,
    0, 0,
    0, 0,
    0, 0,
    0, 0,
    0, 0,
    0, 0,
    0, 0,
    0, 0,
    0, 0,
    0, 0,
    0, 0,
    0, 0,
    0, 0,
    0, 0,
    0, 0,
    0, 0,
    0, 0,
    0, 0,
    0, 0,
    0, 0,
    0, 0,
    0, 0,
    0, 0,
    0, 0,
    0, 0,
    0, 0,
    0, 0,
    0, 0,
    0, 0,
    0, 0,
    0, 0,
    0, 0,
    0, 0,
    0, 0,
    0, 0,
    0, 0,
    0, 0,
    0, 0,
    0, 0,
    0, 0,
    0, 0,
    0, 0,
    0, 0,
    0, 0,
    0, 0,
    0, 0,
    0, 0,
    0, 0,
    0, 0,
    0, 0,
    0, 0,
    0, 0,
    0, 0,
    0, 0,
    0, 0,
    0, 0,
    0, 0,
    0, 0,
    0, 0,
    0, 0,
    0, 0,
    0, 0,
    0, 0
]);
d_nfa = array3d(1..2, 1..88, 1..2, [
  % k = 1
    {}, {},
    {}, {},
    {}, {},
    {}, {},
    {}, {},
    {}, {},
    {}, {},
    {}, {},
    {}, {},
    {}, {},
    {}, {},
    {}, {},
    {}, {},
    {}, {},
    {}, {},
    {}, {},
    {}, {},
    {}, {},
    {}, {},
    {}, {},
    {}, {},
    {}, {},
    {}, {},
    {}, {},
    {}, {},
    {}, {},
    {}, {},
    {}, {},
    {}, {},
    {}, {},
    {}, {},
    {}, {},
    {}, {},
    {}, {},
    {}, {},
    {}, {},
    {}, {},
    {}, {},
    {}, {},
    {}, {},
    {}, {},
    {}, {},
    {}, {},
    {}, {},
    {}, {},
    {}, {},
    {}, {},
    {}, {},
    {}, {},
    {}, {},
    {}, {},
    {}, {},
    {}, {},
    {}, {},
    {}, {},
    {}, {},
    {}, {},
    {}, {},
    {}, {},
    {}, {},
    {}, {},
    {}, {},
    {}, {},
    {}, {},
    {}, {},
    {}, {},
    {}, {},
    {}, {},
    {}, {},
    {}, {},
    {}, {},
    {}, {},
    {}, {},
    {}, {},
    {}, {},
    {}, {},
    {}, {},
    {}, {},
    {}, {},
    {}, {},
    {}, {},
    {}, {},
    {}, {},
    {}, {},
    {}, {},
    {}, {},
    {}, {},
    {}, {},

  % k = 2
    {}, {},
    {}, {},
    {}, {},
    {}, {},
    {}, {},
    {}, {},
    {}, {},
    {}, {},
    {}, {},
    {}, {},
    {}, {},
    {}, {},
    {}, {},
    {}, {},
    {}, {},
    {}, {},
    {}, {},
    {}, {},
    {}, {},
    {}, {},
    {}, {},
    {}, {},
    {}, {},
    {}, {},
    {}, {},
    {}, {},
    {}, {},
    {}, {},
    {}, {},
    {}, {},
    {}, {},
    {}, {},
    {}, {},
    {}, {},
    {}, {},
    {}, {},
    {}, {},
    {}, {},
    {}, {},
    {}, {},
    {}, {},
    {}, {},
    {}, {},
    {}, {},
    {}, {},
    {}, {},
    {}, {},
    {}, {},
    {}, {},
    {}, {},
    {}, {},
    {}, {},
    {}, {},
    {}, {},
    {}, {},
    {}, {},
    {}, {},
    {}, {},
    {}, {},
    {}, {},
    {}, {},
    {}, {},
    {}, {},
    {}, {},
    {}, {},
    {}, {},
    {}, {},
    {}, {},
    {}, {},
    {}, {},
    {}, {},
    {}, {},
    {}, {},
    {}, {},
    {}, {},
    {}, {},
    {}, {},
    {}, {},
    {}, {},
    {}, {},
    {}, {},
    {}, {},
    {}, {},
    {}, {},
    {}, {},
    {}, {},
    {}, {},
    {}, {}
]);
